
Gurobi 8.1.1 (win64, Python) logging started 06/04/19 10:17:39


Gurobi 8.1.1 (win64, Python) logging started 06/04/19 14:26:05

Academic license - for non-commercial use only

Gurobi 8.1.1 (win64, Python) logging started 06/04/19 15:49:34

Academic license - for non-commercial use only

Gurobi 8.1.1 (win64, Python) logging started 08/04/19 15:59:23

Academic license - for non-commercial use only

Gurobi 8.1.1 (win64, Python) logging started 08/04/19 16:07:00

Academic license - for non-commercial use only

Gurobi 8.1.1 (win64, Python) logging started 08/04/19 16:08:11

Academic license - for non-commercial use only

Gurobi 8.1.1 (win64, Python) logging started 08/04/19 16:08:48

Academic license - for non-commercial use only

Gurobi 8.1.1 (win64, Python) logging started 08/05/19 10:18:34

Academic license - for non-commercial use only

Gurobi 8.1.1 (win64, Python) logging started 08/11/19 14:29:52

Academic license - for non-commercial use only

Gurobi 8.1.1 (win64, Python) logging started 08/11/19 14:29:53

Academic license - for non-commercial use only

Gurobi 8.1.1 (win64, Python) logging started 08/11/19 14:29:53

Academic license - for non-commercial use only

Gurobi 8.1.1 (win64, Python) logging started 08/11/19 14:29:54

Academic license - for non-commercial use only

Gurobi 8.1.1 (win64, Python) logging started 08/11/19 14:29:54

Academic license - for non-commercial use only

Gurobi 8.1.1 (win64, Python) logging started 08/11/19 14:29:55

Academic license - for non-commercial use only

Gurobi 8.1.1 (win64, Python) logging started 08/11/19 14:29:56

Academic license - for non-commercial use only

Gurobi 8.1.1 (win64, Python) logging started 08/11/19 14:29:56

Academic license - for non-commercial use only

Gurobi 8.1.1 (win64, Python) logging started 08/11/19 14:29:57

Academic license - for non-commercial use only

Gurobi 8.1.1 (win64, Python) logging started 08/11/19 14:29:58

Academic license - for non-commercial use only

Gurobi 8.1.1 (win64, Python) logging started 08/11/19 14:29:58

Academic license - for non-commercial use only

Gurobi 8.1.1 (win64, Python) logging started 08/11/19 14:29:59

Academic license - for non-commercial use only

Gurobi 8.1.1 (win64, Python) logging started 08/11/19 14:29:59

Academic license - for non-commercial use only

Gurobi 8.1.1 (win64, Python) logging started 08/11/19 14:30:00

Academic license - for non-commercial use only

Gurobi 8.1.1 (win64, Python) logging started 08/11/19 14:30:01

Academic license - for non-commercial use only

Gurobi 8.1.1 (win64, Python) logging started 08/11/19 14:30:01

Academic license - for non-commercial use only

Gurobi 8.1.1 (win64, Python) logging started 08/11/19 14:30:02

Academic license - for non-commercial use only

Gurobi 8.1.1 (win64, Python) logging started 08/11/19 14:30:03

Academic license - for non-commercial use only

Gurobi 8.1.1 (win64, Python) logging started 08/11/19 14:30:03

Academic license - for non-commercial use only

Gurobi 8.1.1 (win64, Python) logging started 08/11/19 14:30:04

Academic license - for non-commercial use only

Gurobi 8.1.1 (win64, Python) logging started 08/11/19 14:30:04

Academic license - for non-commercial use only

Gurobi 8.1.1 (win64, Python) logging started 08/11/19 14:30:05

Academic license - for non-commercial use only

Gurobi 8.1.1 (win64, Python) logging started 08/11/19 14:30:05

Academic license - for non-commercial use only

Gurobi 8.1.1 (win64, Python) logging started 08/11/19 14:30:06

Academic license - for non-commercial use only

Gurobi 8.1.1 (win64, Python) logging started 08/11/19 14:30:06

Academic license - for non-commercial use only

Gurobi 8.1.1 (win64, Python) logging started 08/11/19 14:30:07

Academic license - for non-commercial use only

Gurobi 8.1.1 (win64, Python) logging started 08/11/19 14:30:08

Academic license - for non-commercial use only

Gurobi 8.1.1 (win64, Python) logging started 08/11/19 14:30:08

Academic license - for non-commercial use only

Gurobi 8.1.1 (win64, Python) logging started 08/11/19 14:30:09

Academic license - for non-commercial use only

Gurobi 8.1.1 (win64, Python) logging started 08/11/19 14:30:10

Academic license - for non-commercial use only

Gurobi 8.1.1 (win64, Python) logging started 08/11/19 14:30:10

Academic license - for non-commercial use only

Gurobi 8.1.1 (win64, Python) logging started 08/11/19 14:30:11

Academic license - for non-commercial use only

Gurobi 8.1.1 (win64, Python) logging started 08/11/19 14:30:11

Academic license - for non-commercial use only

Gurobi 8.1.1 (win64, Python) logging started 08/11/19 14:30:12

Academic license - for non-commercial use only

Gurobi 8.1.1 (win64, Python) logging started 08/11/19 14:30:12

Academic license - for non-commercial use only

Gurobi 8.1.1 (win64, Python) logging started 08/11/19 14:30:13

Academic license - for non-commercial use only

Gurobi 8.1.1 (win64, Python) logging started 08/11/19 14:30:13

Academic license - for non-commercial use only

Gurobi 8.1.1 (win64, Python) logging started 08/11/19 14:30:14

Academic license - for non-commercial use only

Gurobi 8.1.1 (win64, Python) logging started 08/11/19 14:30:15

Academic license - for non-commercial use only

Gurobi 8.1.1 (win64, Python) logging started 08/11/19 14:30:15

Academic license - for non-commercial use only

Gurobi 8.1.1 (win64, Python) logging started 08/11/19 14:30:16

Academic license - for non-commercial use only

Gurobi 8.1.1 (win64, Python) logging started 08/11/19 14:30:17

Academic license - for non-commercial use only

Gurobi 8.1.1 (win64, Python) logging started 08/11/19 14:30:17

Academic license - for non-commercial use only

Gurobi 8.1.1 (win64, Python) logging started 08/11/19 14:30:18

Academic license - for non-commercial use only

Gurobi 8.1.1 (win64, Python) logging started 08/11/19 14:30:18

Academic license - for non-commercial use only

Gurobi 8.1.1 (win64, Python) logging started 08/11/19 14:30:19

Academic license - for non-commercial use only

Gurobi 8.1.1 (win64, Python) logging started 08/11/19 14:30:20

Academic license - for non-commercial use only

Gurobi 8.1.1 (win64, Python) logging started 08/11/19 14:30:20

Academic license - for non-commercial use only

Gurobi 8.1.1 (win64, Python) logging started 08/11/19 14:30:21

Academic license - for non-commercial use only

Gurobi 8.1.1 (win64, Python) logging started 08/11/19 14:30:21

Academic license - for non-commercial use only

Gurobi 8.1.1 (win64, Python) logging started 08/11/19 14:30:22

Academic license - for non-commercial use only

Gurobi 8.1.1 (win64, Python) logging started 08/11/19 14:30:22

Academic license - for non-commercial use only

Gurobi 8.1.1 (win64, Python) logging started 08/11/19 14:30:23

Academic license - for non-commercial use only

Gurobi 8.1.1 (win64, Python) logging started 08/11/19 14:30:24

Academic license - for non-commercial use only

Gurobi 8.1.1 (win64, Python) logging started 08/11/19 14:30:24

Academic license - for non-commercial use only

Gurobi 8.1.1 (win64, Python) logging started 08/11/19 14:30:25

Academic license - for non-commercial use only

Gurobi 8.1.1 (win64, Python) logging started 08/11/19 14:30:25

Academic license - for non-commercial use only

Gurobi 8.1.1 (win64, Python) logging started 08/11/19 14:30:26

Academic license - for non-commercial use only

Gurobi 8.1.1 (win64, Python) logging started 08/11/19 14:30:27

Academic license - for non-commercial use only

Gurobi 8.1.1 (win64, Python) logging started 08/11/19 14:30:27

Academic license - for non-commercial use only

Gurobi 8.1.1 (win64, Python) logging started 08/11/19 14:30:28

Academic license - for non-commercial use only

Gurobi 8.1.1 (win64, Python) logging started 08/11/19 14:30:28

Academic license - for non-commercial use only

Gurobi 8.1.1 (win64, Python) logging started 08/11/19 14:30:29

Academic license - for non-commercial use only

Gurobi 8.1.1 (win64, Python) logging started 08/11/19 14:30:29

Academic license - for non-commercial use only

Gurobi 8.1.1 (win64, Python) logging started 08/11/19 14:30:30

Academic license - for non-commercial use only

Gurobi 8.1.1 (win64, Python) logging started 08/11/19 14:30:31

Academic license - for non-commercial use only

Gurobi 8.1.1 (win64, Python) logging started 08/11/19 14:30:31

Academic license - for non-commercial use only

Gurobi 8.1.1 (win64, Python) logging started 08/11/19 14:30:32

Academic license - for non-commercial use only

Gurobi 8.1.1 (win64, Python) logging started 08/11/19 14:30:32

Academic license - for non-commercial use only

Gurobi 8.1.1 (win64, Python) logging started 08/11/19 14:30:34

Academic license - for non-commercial use only

Gurobi 8.1.1 (win64, Python) logging started 08/11/19 14:30:34

Academic license - for non-commercial use only

Gurobi 8.1.1 (win64, Python) logging started 08/11/19 14:30:35

Academic license - for non-commercial use only

Gurobi 8.1.1 (win64, Python) logging started 08/11/19 14:30:35

Academic license - for non-commercial use only

Gurobi 8.1.1 (win64, Python) logging started 08/11/19 14:30:36

Academic license - for non-commercial use only

Gurobi 8.1.1 (win64, Python) logging started 08/11/19 14:30:36

Academic license - for non-commercial use only

Gurobi 8.1.1 (win64, Python) logging started 08/11/19 14:30:37

Academic license - for non-commercial use only

Gurobi 8.1.1 (win64, Python) logging started 08/11/19 14:30:37

Academic license - for non-commercial use only

Gurobi 8.1.1 (win64, Python) logging started 08/11/19 14:30:38

Academic license - for non-commercial use only

Gurobi 8.1.1 (win64, Python) logging started 08/11/19 14:30:39

Academic license - for non-commercial use only

Gurobi 8.1.1 (win64, Python) logging started 08/11/19 14:30:39

Academic license - for non-commercial use only

Gurobi 8.1.1 (win64, Python) logging started 08/11/19 14:30:40

Academic license - for non-commercial use only

Gurobi 8.1.1 (win64, Python) logging started 08/11/19 14:30:41

Academic license - for non-commercial use only

Gurobi 8.1.1 (win64, Python) logging started 08/11/19 14:30:42

Academic license - for non-commercial use only

Gurobi 8.1.1 (win64, Python) logging started 08/11/19 14:30:42

Academic license - for non-commercial use only

Gurobi 8.1.1 (win64, Python) logging started 08/11/19 14:30:43

Academic license - for non-commercial use only

Gurobi 8.1.1 (win64, Python) logging started 08/11/19 14:30:44

Academic license - for non-commercial use only

Gurobi 8.1.1 (win64, Python) logging started 08/11/19 14:30:44

Academic license - for non-commercial use only

Gurobi 8.1.1 (win64, Python) logging started 08/11/19 14:30:45

Academic license - for non-commercial use only

Gurobi 8.1.1 (win64, Python) logging started 08/11/19 14:30:45

Academic license - for non-commercial use only

Gurobi 8.1.1 (win64, Python) logging started 08/11/19 14:30:46

Academic license - for non-commercial use only

Gurobi 8.1.1 (win64, Python) logging started 08/11/19 14:30:47

Academic license - for non-commercial use only

Gurobi 8.1.1 (win64, Python) logging started 08/11/19 14:30:47

Academic license - for non-commercial use only

Gurobi 8.1.1 (win64, Python) logging started 08/11/19 14:30:48

Academic license - for non-commercial use only

Gurobi 8.1.1 (win64, Python) logging started 08/11/19 14:30:48

Academic license - for non-commercial use only

Gurobi 8.1.1 (win64, Python) logging started 08/11/19 14:30:49

Academic license - for non-commercial use only

Gurobi 8.1.1 (win64, Python) logging started 08/11/19 14:30:49

Academic license - for non-commercial use only

Gurobi 8.1.1 (win64, Python) logging started 08/11/19 14:30:50

Academic license - for non-commercial use only

Gurobi 8.1.1 (win64, Python) logging started 08/11/19 14:30:51

Academic license - for non-commercial use only

Gurobi 8.1.1 (win64, Python) logging started 08/11/19 14:30:51

Academic license - for non-commercial use only

Gurobi 8.1.1 (win64, Python) logging started 08/11/19 14:30:52

Academic license - for non-commercial use only

Gurobi 8.1.1 (win64, Python) logging started 08/11/19 14:30:52

Academic license - for non-commercial use only

Gurobi 8.1.1 (win64, Python) logging started 08/11/19 14:30:53

Academic license - for non-commercial use only

Gurobi 8.1.1 (win64, Python) logging started 08/11/19 14:30:54

Academic license - for non-commercial use only

Gurobi 8.1.1 (win64, Python) logging started 08/11/19 14:30:54

Academic license - for non-commercial use only

Gurobi 8.1.1 (win64, Python) logging started 08/11/19 14:30:54

Academic license - for non-commercial use only

Gurobi 8.1.1 (win64, Python) logging started 08/11/19 14:30:56

Academic license - for non-commercial use only

Gurobi 8.1.1 (win64, Python) logging started 08/11/19 14:30:56

Academic license - for non-commercial use only

Gurobi 8.1.1 (win64, Python) logging started 08/11/19 14:30:57

Academic license - for non-commercial use only

Gurobi 8.1.1 (win64, Python) logging started 08/11/19 14:30:57

Academic license - for non-commercial use only

Gurobi 8.1.1 (win64, Python) logging started 08/11/19 14:30:58

Academic license - for non-commercial use only

Gurobi 8.1.1 (win64, Python) logging started 08/11/19 14:30:58

Academic license - for non-commercial use only

Gurobi 8.1.1 (win64, Python) logging started 08/11/19 14:30:59

Academic license - for non-commercial use only

Gurobi 8.1.1 (win64, Python) logging started 08/11/19 14:30:59

Academic license - for non-commercial use only

Gurobi 8.1.1 (win64, Python) logging started 08/11/19 14:31:00

Academic license - for non-commercial use only

Gurobi 8.1.1 (win64, Python) logging started 08/11/19 14:31:01

Academic license - for non-commercial use only

Gurobi 8.1.1 (win64, Python) logging started 08/11/19 14:31:01

Academic license - for non-commercial use only

Gurobi 8.1.1 (win64, Python) logging started 08/11/19 14:31:01

Academic license - for non-commercial use only

Gurobi 8.1.1 (win64, Python) logging started 08/11/19 14:31:02

Academic license - for non-commercial use only

Gurobi 8.1.1 (win64, Python) logging started 08/11/19 14:31:03

Academic license - for non-commercial use only

Gurobi 8.1.1 (win64, Python) logging started 08/11/19 14:31:03

Academic license - for non-commercial use only

Gurobi 8.1.1 (win64, Python) logging started 08/11/19 14:31:04

Academic license - for non-commercial use only

Gurobi 8.1.1 (win64, Python) logging started 08/11/19 14:31:05

Academic license - for non-commercial use only

Gurobi 8.1.1 (win64, Python) logging started 08/11/19 14:31:05

Academic license - for non-commercial use only

Gurobi 8.1.1 (win64, Python) logging started 08/11/19 14:31:06

Academic license - for non-commercial use only

Gurobi 8.1.1 (win64, Python) logging started 08/11/19 14:31:06

Academic license - for non-commercial use only

Gurobi 8.1.1 (win64, Python) logging started 08/11/19 14:31:07

Academic license - for non-commercial use only

Gurobi 8.1.1 (win64, Python) logging started 08/11/19 14:31:07

Academic license - for non-commercial use only

Gurobi 8.1.1 (win64, Python) logging started 08/11/19 14:31:08

Academic license - for non-commercial use only

Gurobi 8.1.1 (win64, Python) logging started 08/11/19 14:31:08

Academic license - for non-commercial use only

Gurobi 8.1.1 (win64, Python) logging started 08/11/19 14:31:09

Academic license - for non-commercial use only

Gurobi 8.1.1 (win64, Python) logging started 08/11/19 14:31:10

Academic license - for non-commercial use only

Gurobi 8.1.1 (win64, Python) logging started 08/11/19 14:31:10

Academic license - for non-commercial use only

Gurobi 8.1.1 (win64, Python) logging started 08/11/19 14:31:11

Academic license - for non-commercial use only

Gurobi 8.1.1 (win64, Python) logging started 08/11/19 14:31:12

Academic license - for non-commercial use only

Gurobi 8.1.1 (win64, Python) logging started 08/11/19 14:31:12

Academic license - for non-commercial use only

Gurobi 8.1.1 (win64, Python) logging started 08/11/19 14:31:12

Academic license - for non-commercial use only

Gurobi 8.1.1 (win64, Python) logging started 08/11/19 14:31:13

Academic license - for non-commercial use only

Gurobi 8.1.1 (win64, Python) logging started 08/11/19 14:31:14

Academic license - for non-commercial use only

Gurobi 8.1.1 (win64, Python) logging started 08/11/19 14:31:14

Academic license - for non-commercial use only

Gurobi 8.1.1 (win64, Python) logging started 08/11/19 14:31:15

Academic license - for non-commercial use only

Gurobi 8.1.1 (win64, Python) logging started 08/11/19 14:31:15

Academic license - for non-commercial use only

Gurobi 8.1.1 (win64, Python) logging started 08/11/19 14:31:16

Academic license - for non-commercial use only

Gurobi 8.1.1 (win64, Python) logging started 08/11/19 14:31:16

Academic license - for non-commercial use only

Gurobi 8.1.1 (win64, Python) logging started 08/11/19 14:31:17

Academic license - for non-commercial use only

Gurobi 8.1.1 (win64, Python) logging started 08/11/19 14:31:17

Academic license - for non-commercial use only

Gurobi 8.1.1 (win64, Python) logging started 08/11/19 14:31:18

Academic license - for non-commercial use only

Gurobi 8.1.1 (win64, Python) logging started 08/11/19 14:31:19

Academic license - for non-commercial use only

Gurobi 8.1.1 (win64, Python) logging started 08/11/19 14:31:19

Academic license - for non-commercial use only

Gurobi 8.1.1 (win64, Python) logging started 08/11/19 14:31:20

Academic license - for non-commercial use only

Gurobi 8.1.1 (win64, Python) logging started 08/11/19 14:31:20

Academic license - for non-commercial use only

Gurobi 8.1.1 (win64, Python) logging started 08/11/19 14:31:21

Academic license - for non-commercial use only

Gurobi 8.1.1 (win64, Python) logging started 08/11/19 14:31:21

Academic license - for non-commercial use only

Gurobi 8.1.1 (win64, Python) logging started 08/11/19 14:31:22

Academic license - for non-commercial use only

Gurobi 8.1.1 (win64, Python) logging started 08/11/19 14:31:23

Academic license - for non-commercial use only

Gurobi 8.1.1 (win64, Python) logging started 08/11/19 14:31:23

Academic license - for non-commercial use only

Gurobi 8.1.1 (win64, Python) logging started 08/11/19 14:31:24

Academic license - for non-commercial use only

Gurobi 8.1.1 (win64, Python) logging started 08/11/19 14:31:24

Academic license - for non-commercial use only

Gurobi 8.1.1 (win64, Python) logging started 08/11/19 14:31:25

Academic license - for non-commercial use only

Gurobi 8.1.1 (win64, Python) logging started 08/11/19 14:31:26

Academic license - for non-commercial use only

Gurobi 8.1.1 (win64, Python) logging started 08/11/19 14:31:26

Academic license - for non-commercial use only

Gurobi 8.1.1 (win64, Python) logging started 08/11/19 14:31:26

Academic license - for non-commercial use only

Gurobi 8.1.1 (win64, Python) logging started 08/11/19 14:31:27

Academic license - for non-commercial use only

Gurobi 8.1.1 (win64, Python) logging started 08/11/19 14:31:28

Academic license - for non-commercial use only

Gurobi 8.1.1 (win64, Python) logging started 08/11/19 14:31:28

Academic license - for non-commercial use only

Gurobi 8.1.1 (win64, Python) logging started 08/11/19 14:31:29

Academic license - for non-commercial use only

Gurobi 8.1.1 (win64, Python) logging started 08/11/19 14:31:30

Academic license - for non-commercial use only

Gurobi 8.1.1 (win64, Python) logging started 08/11/19 14:31:30

Academic license - for non-commercial use only

Gurobi 8.1.1 (win64, Python) logging started 08/11/19 14:31:31

Academic license - for non-commercial use only

Gurobi 8.1.1 (win64, Python) logging started 08/11/19 14:31:31

Academic license - for non-commercial use only

Gurobi 8.1.1 (win64, Python) logging started 08/11/19 14:31:32

Academic license - for non-commercial use only

Gurobi 8.1.1 (win64, Python) logging started 08/11/19 14:31:33

Academic license - for non-commercial use only

Gurobi 8.1.1 (win64, Python) logging started 08/11/19 14:31:33

Academic license - for non-commercial use only

Gurobi 8.1.1 (win64, Python) logging started 08/11/19 14:31:34

Academic license - for non-commercial use only

Gurobi 8.1.1 (win64, Python) logging started 08/11/19 14:31:34

Academic license - for non-commercial use only

Gurobi 8.1.1 (win64, Python) logging started 08/11/19 14:31:35

Academic license - for non-commercial use only

Gurobi 8.1.1 (win64, Python) logging started 08/11/19 14:31:35

Academic license - for non-commercial use only

Gurobi 8.1.1 (win64, Python) logging started 08/11/19 14:31:36

Academic license - for non-commercial use only

Gurobi 8.1.1 (win64, Python) logging started 08/11/19 14:31:37

Academic license - for non-commercial use only

Gurobi 8.1.1 (win64, Python) logging started 08/11/19 14:31:37

Academic license - for non-commercial use only

Gurobi 8.1.1 (win64, Python) logging started 08/11/19 14:31:38

Academic license - for non-commercial use only

Gurobi 8.1.1 (win64, Python) logging started 08/11/19 14:31:38

Academic license - for non-commercial use only

Gurobi 8.1.1 (win64, Python) logging started 08/11/19 14:31:39

Academic license - for non-commercial use only

Gurobi 8.1.1 (win64, Python) logging started 08/11/19 14:31:39

Academic license - for non-commercial use only

Gurobi 8.1.1 (win64, Python) logging started 08/11/19 14:31:40

Academic license - for non-commercial use only

Gurobi 8.1.1 (win64, Python) logging started 08/11/19 14:31:40

Academic license - for non-commercial use only

Gurobi 8.1.1 (win64, Python) logging started 08/11/19 14:31:41

Academic license - for non-commercial use only

Gurobi 8.1.1 (win64, Python) logging started 08/11/19 14:31:42

Academic license - for non-commercial use only

Gurobi 8.1.1 (win64, Python) logging started 08/11/19 14:31:42

Academic license - for non-commercial use only

Gurobi 8.1.1 (win64, Python) logging started 08/11/19 14:31:43

Academic license - for non-commercial use only

Gurobi 8.1.1 (win64, Python) logging started 08/11/19 14:31:43

Academic license - for non-commercial use only

Gurobi 8.1.1 (win64, Python) logging started 08/11/19 14:31:44

Academic license - for non-commercial use only

Gurobi 8.1.1 (win64, Python) logging started 08/11/19 14:31:44

Academic license - for non-commercial use only

Gurobi 8.1.1 (win64, Python) logging started 08/11/19 14:31:45

Academic license - for non-commercial use only

Gurobi 8.1.1 (win64, Python) logging started 08/11/19 14:31:46

Academic license - for non-commercial use only

Gurobi 8.1.1 (win64, Python) logging started 08/11/19 14:31:46

Academic license - for non-commercial use only

Gurobi 8.1.1 (win64, Python) logging started 08/11/19 14:31:47

Academic license - for non-commercial use only

Gurobi 8.1.1 (win64, Python) logging started 08/11/19 14:31:48

Academic license - for non-commercial use only

Gurobi 8.1.1 (win64, Python) logging started 08/11/19 14:31:49

Academic license - for non-commercial use only

Gurobi 8.1.1 (win64, Python) logging started 08/11/19 14:31:50

Academic license - for non-commercial use only

Gurobi 8.1.1 (win64, Python) logging started 08/11/19 14:31:50

Academic license - for non-commercial use only

Gurobi 8.1.1 (win64, Python) logging started 08/11/19 14:31:51

Academic license - for non-commercial use only

Gurobi 8.1.1 (win64, Python) logging started 08/11/19 14:31:52

Academic license - for non-commercial use only

Gurobi 8.1.1 (win64, Python) logging started 08/11/19 14:31:52

Academic license - for non-commercial use only

Gurobi 8.1.1 (win64, Python) logging started 08/11/19 14:31:53

Academic license - for non-commercial use only

Gurobi 8.1.1 (win64, Python) logging started 08/11/19 14:31:53

Academic license - for non-commercial use only

Gurobi 8.1.1 (win64, Python) logging started 08/11/19 14:31:54

Academic license - for non-commercial use only

Gurobi 8.1.1 (win64, Python) logging started 08/11/19 14:31:55

Academic license - for non-commercial use only

Gurobi 8.1.1 (win64, Python) logging started 08/11/19 14:31:55

Academic license - for non-commercial use only

Gurobi 8.1.1 (win64, Python) logging started 08/11/19 14:31:56

Academic license - for non-commercial use only

Gurobi 8.1.1 (win64, Python) logging started 08/11/19 14:31:57

Academic license - for non-commercial use only

Gurobi 8.1.1 (win64, Python) logging started 08/11/19 14:31:57

Academic license - for non-commercial use only

Gurobi 8.1.1 (win64, Python) logging started 08/11/19 14:31:58

Academic license - for non-commercial use only

Gurobi 8.1.1 (win64, Python) logging started 08/11/19 14:31:58

Academic license - for non-commercial use only

Gurobi 8.1.1 (win64, Python) logging started 08/11/19 14:31:59

Academic license - for non-commercial use only

Gurobi 8.1.1 (win64, Python) logging started 08/11/19 14:32:00

Academic license - for non-commercial use only

Gurobi 8.1.1 (win64, Python) logging started 08/11/19 14:32:01

Academic license - for non-commercial use only

Gurobi 8.1.1 (win64, Python) logging started 08/11/19 14:32:01

Academic license - for non-commercial use only

Gurobi 8.1.1 (win64, Python) logging started 08/11/19 14:32:02

Academic license - for non-commercial use only

Gurobi 8.1.1 (win64, Python) logging started 08/11/19 14:32:03

Academic license - for non-commercial use only

Gurobi 8.1.1 (win64, Python) logging started 08/11/19 14:32:03

Academic license - for non-commercial use only

Gurobi 8.1.1 (win64, Python) logging started 08/11/19 14:32:04

Academic license - for non-commercial use only

Gurobi 8.1.1 (win64, Python) logging started 08/11/19 14:32:05

Academic license - for non-commercial use only

Gurobi 8.1.1 (win64, Python) logging started 08/11/19 14:32:05

Academic license - for non-commercial use only

Gurobi 8.1.1 (win64, Python) logging started 08/11/19 14:32:06

Academic license - for non-commercial use only

Gurobi 8.1.1 (win64, Python) logging started 08/11/19 14:32:06

Academic license - for non-commercial use only

Gurobi 8.1.1 (win64, Python) logging started 08/11/19 14:32:07

Academic license - for non-commercial use only

Gurobi 8.1.1 (win64, Python) logging started 08/11/19 14:32:08

Academic license - for non-commercial use only

Gurobi 8.1.1 (win64, Python) logging started 08/11/19 14:32:08

Academic license - for non-commercial use only

Gurobi 8.1.1 (win64, Python) logging started 08/11/19 14:32:09

Academic license - for non-commercial use only

Gurobi 8.1.1 (win64, Python) logging started 08/11/19 14:32:10

Academic license - for non-commercial use only

Gurobi 8.1.1 (win64, Python) logging started 08/11/19 14:32:10

Academic license - for non-commercial use only

Gurobi 8.1.1 (win64, Python) logging started 08/11/19 14:32:11

Academic license - for non-commercial use only

Gurobi 8.1.1 (win64, Python) logging started 08/11/19 14:32:11

Academic license - for non-commercial use only

Gurobi 8.1.1 (win64, Python) logging started 08/11/19 14:32:12

Academic license - for non-commercial use only

Gurobi 8.1.1 (win64, Python) logging started 08/11/19 14:32:13

Academic license - for non-commercial use only

Gurobi 8.1.1 (win64, Python) logging started 08/11/19 14:32:13

Academic license - for non-commercial use only

Gurobi 8.1.1 (win64, Python) logging started 08/11/19 14:32:14

Academic license - for non-commercial use only

Gurobi 8.1.1 (win64, Python) logging started 08/11/19 14:32:15

Academic license - for non-commercial use only

Gurobi 8.1.1 (win64, Python) logging started 08/11/19 14:32:15

Academic license - for non-commercial use only

Gurobi 8.1.1 (win64, Python) logging started 08/11/19 14:32:16

Academic license - for non-commercial use only

Gurobi 8.1.1 (win64, Python) logging started 08/11/19 14:32:17

Academic license - for non-commercial use only

Gurobi 8.1.1 (win64, Python) logging started 08/11/19 14:32:18

Academic license - for non-commercial use only

Gurobi 8.1.1 (win64, Python) logging started 08/11/19 14:32:20

Academic license - for non-commercial use only

Gurobi 8.1.1 (win64, Python) logging started 08/11/19 14:32:20

Academic license - for non-commercial use only

Gurobi 8.1.1 (win64, Python) logging started 08/11/19 14:32:21

Academic license - for non-commercial use only

Gurobi 8.1.1 (win64, Python) logging started 08/11/19 14:32:22

Academic license - for non-commercial use only

Gurobi 8.1.1 (win64, Python) logging started 08/11/19 14:32:23

Academic license - for non-commercial use only

Gurobi 8.1.1 (win64, Python) logging started 08/11/19 14:32:23

Academic license - for non-commercial use only

Gurobi 8.1.1 (win64, Python) logging started 08/11/19 14:32:24

Academic license - for non-commercial use only

Gurobi 8.1.1 (win64, Python) logging started 08/11/19 14:32:25

Academic license - for non-commercial use only

Gurobi 8.1.1 (win64, Python) logging started 08/11/19 14:32:26

Academic license - for non-commercial use only

Gurobi 8.1.1 (win64, Python) logging started 08/11/19 14:32:26

Academic license - for non-commercial use only

Gurobi 8.1.1 (win64, Python) logging started 08/11/19 14:32:27

Academic license - for non-commercial use only

Gurobi 8.1.1 (win64, Python) logging started 08/11/19 14:32:28

Academic license - for non-commercial use only

Gurobi 8.1.1 (win64, Python) logging started 08/11/19 14:32:28

Academic license - for non-commercial use only

Gurobi 8.1.1 (win64, Python) logging started 08/11/19 14:32:29

Academic license - for non-commercial use only

Gurobi 8.1.1 (win64, Python) logging started 08/11/19 14:32:29

Academic license - for non-commercial use only

Gurobi 8.1.1 (win64, Python) logging started 08/11/19 14:32:30

Academic license - for non-commercial use only

Gurobi 8.1.1 (win64, Python) logging started 08/11/19 14:32:31

Academic license - for non-commercial use only

Gurobi 8.1.1 (win64, Python) logging started 08/11/19 14:32:31

Academic license - for non-commercial use only

Gurobi 8.1.1 (win64, Python) logging started 08/11/19 14:32:32

Academic license - for non-commercial use only

Gurobi 8.1.1 (win64, Python) logging started 08/11/19 14:32:32

Academic license - for non-commercial use only

Gurobi 8.1.1 (win64, Python) logging started 08/11/19 14:32:33

Academic license - for non-commercial use only

Gurobi 8.1.1 (win64, Python) logging started 08/11/19 14:32:34

Academic license - for non-commercial use only

Gurobi 8.1.1 (win64, Python) logging started 08/11/19 14:32:34

Academic license - for non-commercial use only

Gurobi 8.1.1 (win64, Python) logging started 08/11/19 14:32:36

Academic license - for non-commercial use only

Gurobi 8.1.1 (win64, Python) logging started 08/11/19 14:32:36

Academic license - for non-commercial use only

Gurobi 8.1.1 (win64, Python) logging started 08/11/19 14:32:37

Academic license - for non-commercial use only

Gurobi 8.1.1 (win64, Python) logging started 08/11/19 14:32:37

Academic license - for non-commercial use only

Gurobi 8.1.1 (win64, Python) logging started 08/11/19 14:32:38

Academic license - for non-commercial use only

Gurobi 8.1.1 (win64, Python) logging started 08/11/19 14:32:39

Academic license - for non-commercial use only

Gurobi 8.1.1 (win64, Python) logging started 08/11/19 14:32:39

Academic license - for non-commercial use only

Gurobi 8.1.1 (win64, Python) logging started 08/11/19 14:32:40

Academic license - for non-commercial use only

Gurobi 8.1.1 (win64, Python) logging started 08/11/19 14:32:41

Academic license - for non-commercial use only

Gurobi 8.1.1 (win64, Python) logging started 08/11/19 14:32:41

Academic license - for non-commercial use only

Gurobi 8.1.1 (win64, Python) logging started 08/11/19 14:32:42

Academic license - for non-commercial use only

Gurobi 8.1.1 (win64, Python) logging started 08/11/19 14:32:42

Academic license - for non-commercial use only

Gurobi 8.1.1 (win64, Python) logging started 08/11/19 14:32:43

Academic license - for non-commercial use only

Gurobi 8.1.1 (win64, Python) logging started 08/11/19 14:32:44

Academic license - for non-commercial use only

Gurobi 8.1.1 (win64, Python) logging started 08/11/19 14:32:45

Academic license - for non-commercial use only

Gurobi 8.1.1 (win64, Python) logging started 08/11/19 14:32:45

Academic license - for non-commercial use only

Gurobi 8.1.1 (win64, Python) logging started 08/11/19 14:37:17

Academic license - for non-commercial use only

Gurobi 8.1.1 (win64, Python) logging started 08/11/19 14:37:30

Academic license - for non-commercial use only

Gurobi 8.1.1 (win64, Python) logging started 08/11/19 14:40:41

Academic license - for non-commercial use only

Gurobi 8.1.1 (win64, Python) logging started 08/11/19 14:41:06

Academic license - for non-commercial use only

Gurobi 8.1.1 (win64, Python) logging started 08/11/19 14:41:07

Academic license - for non-commercial use only

Gurobi 8.1.1 (win64, Python) logging started 08/11/19 14:41:34

Academic license - for non-commercial use only

Gurobi 8.1.1 (win64, Python) logging started 08/11/19 14:41:35

Academic license - for non-commercial use only

Gurobi 8.1.1 (win64, Python) logging started 08/11/19 14:41:44

Academic license - for non-commercial use only

Gurobi 8.1.1 (win64, Python) logging started 08/11/19 14:41:44

Academic license - for non-commercial use only

Gurobi 8.1.1 (win64, Python) logging started 08/11/19 14:41:56

Academic license - for non-commercial use only

Gurobi 8.1.1 (win64, Python) logging started 08/11/19 14:41:56

Academic license - for non-commercial use only

Gurobi 8.1.1 (win64, Python) logging started 08/11/19 14:42:47

Academic license - for non-commercial use only

Gurobi 8.1.1 (win64, Python) logging started 08/11/19 14:42:48

Academic license - for non-commercial use only

Gurobi 8.1.1 (win64, Python) logging started 08/11/19 14:45:25

Academic license - for non-commercial use only
